* #variable= 105 #constraint= 22 #equal= 0 intsize= 5
****************************************
* begin normalizer comments
* category= DEC-LIN
* end normalizer comments
****************************************
-1 x16 +1 x57 -1 x24 +1 x32 +2 x40 +2 x23 +1 x56 -1 x38 +2 x30 +1 x14 -1 x87 -1 x54 +2 x66 -2 x69 +1 x91 >= 3 ;
-1 x80 +1 x36 +1 x26 +1 x92 +1 x83 +2 x47 +2 x43 +1 x31 +1 x29 +2 x93 -2 x1 +2 x94 +1 x18 -1 x101 -1 x41 >= 5 ;
-1 x46 +1 x71 +1 x57 -2 x6 -1 x21 +1 x91 +1 x11 -2 x61 -1 x24 +1 x56 +1 x75 +1 x32 +2 x86 +2 x3 +2 x49 >= 3 ;
-2 x92 -1 x49 -1 x70 +2 x41 +1 x61 +2 x101 +1 x6 -1 x3 -1 x64 -2 x18 -1 x52 -1 x86 -1 x88 -2 x31 +1 x97 >= -3 ;
-1 x9 +2 x54 +1 x105 +1 x72 +2 x38 -2 x14 +1 x44 +2 x87 +2 x16 -1 x51 -1 x37 +1 x28 +1 x34 +1 x90 -1 x17 >= 4 ;
+2 x50 +2 x60 +2 x74 +2 x79 -2 x8 >= 3 ;
+2 x20 -2 x2 -2 x100 +2 x19 +2 x76 >= 1 ;
-1 x43 +1 x33 -1 x93 +1 x103 +1 x65 -1 x39 +2 x95 +1 x1 -2 x73 -1 x94 +2 x55 -1 x47 -1 x68 +2 x13 -2 x98 >= 0 ;
-1 x76 -2 x58 +2 x67 -1 x15 -2 x35 -1 x19 +1 x2 -1 x20 +2 x42 -1 x89 -1 x62 +2 x77 +1 x25 +1 x100 +1 x99 >= 0 ;
-2 x56 -1 x4 -1 x10 -2 x32 -2 x91 -1 x85 -1 x51 -1 x17 -2 x57 -1 x53 +1 x105 -1 x37 +2 x24 +1 x63 -1 x9 >= -6 ;
-1 x46 +1 x75 -1 x77 -1 x42 +1 x11 +1 x35 +2 x70 +2 x52 -1 x21 -1 x67 -2 x97 +1 x58 +2 x88 +2 x64 +1 x71 >= 3 ;
+2 x89 -2 x99 -2 x25 +2 x15 +2 x62 >= 1 ;
-1 x86 -2 x26 -1 x66 -1 x3 -1 x30 -2 x83 -1 x40 +1 x6 +1 x69 +2 x80 -2 x29 -1 x49 +1 x61 -2 x36 -1 x23 >= -5 ;
+2 x4 +2 x53 +2 x85 +2 x10 -2 x63 >= 3 ;
-1 x74 +2 x48 +2 x22 +2 x5 +1 x44 +1 x8 +1 x72 -2 x81 +1 x34 -1 x60 +2 x84 -1 x79 -1 x50 +1 x90 +1 x28 >= 4 ;
-2 x75 -1 x10 -1 x53 +2 x21 -1 x19 +1 x2 -2 x71 +1 x100 +2 x46 -1 x4 -2 x11 -1 x85 +1 x63 -1 x20 -1 x76 >= -3 ;
-2 x95 -2 x55 +2 x73 -2 x13 +2 x98 >= -1 ;
+2 x37 +2 x51 -2 x105 +2 x17 +2 x9 >= 3 ;
-2 x90 -2 x34 -2 x72 -2 x28 -2 x44 >= -5 ;
+1 x81 -2 x45 +2 x27 -2 x96 +2 x78 -1 x22 +2 x104 -1 x54 -1 x87 -1 x5 -1 x84 -1 x48 +1 x14 -1 x16 -1 x38 >= -2 ;
-2 x65 -2 x103 -1 x102 +2 x68 +1 x26 -1 x59 +1 x36 -2 x33 +1 x83 +1 x12 -1 x7 -1 x82 -1 x80 +2 x39 +1 x29 >= -1 ;
+2 x82 +1 x96 -1 x40 -1 x27 +2 x59 +1 x69 -1 x66 -1 x23 -1 x104 +1 x45 +2 x102 -1 x30 +2 x7 -1 x78 -2 x12 >= 1 ;
